%%% static parameters %%%
timespan = 1;
Fact = [2];
Distr1 = [5];
Distr2 = [10];
Clients_N = [100];
Demand_W = [15];
Lt0 = [4];
Lt1 = [4];
SS_ = [0.85];
DS_D = [8];
K = [200];
MA = [500];
%%% dynamic parameters %%%
lost_ratio_sales_ret_th = 0.36706191048710834;
lost_ratio_sales_ret_w = 15;
lost_ratio_sales_dis_th = 0.6933415707632888;
lost_ratio_sales_dis_w = 54;
lost_ratio_sales_fac_th = 0.7241093155127502;
lost_ratio_sales_fac_w = 41;
stock_customer_MA_mean_relative_th = 0.5675026731797341;
stock_customer_MA_mean_relative_w = 43;
stock_distributor_MA_mean_relative_th = 0.09255062320219865;
stock_distributor_MA_mean_relative_w = 7;
stock_retailer_MA_mean_relative_th = 0.4421070661549713;
stock_retailer_MA_mean_relative_w = 33;
stock_factory_MA_mean_relative_th = 0.5679880588813819;
stock_factory_MA_mean_relative_w = 28;
